(set-logic ALL)
(declare-const x String)
(declare-const y String)
(assert (str.in_re x (re.* (str.to_re "'\u{c}';"))))
(assert (str.in_re x (re.* (str.to_re "'\u{c}';'\u{c}';"))))
(assert (str.in_re x (re.* (str.to_re "x;'\u{c}';'\u{c}';"))))
(check-sat)
